NAME: cities_5_3
TYPE: TSP
COMMENT: Generated from CSV
DIMENSION: 5
EDGE_WEIGHT_TYPE: EUC_2D
NODE_COORD_SECTION
1 54.04074970521319 88.80156375793035
2 43.58100030516901 60.15803635244236
3 9.286846869914111 46.025358804768935
4 84.75572809704181 63.24473408367706
5 74.10817265459077 64.26561111531804
EOF
